units           metal
dimension       3
boundary        p p p
atom_style      atomic

read_data       Lammps_Input.data
replicate       2 2 1


mass            1 207.2
mass            2 126.905
mass            3 12.011
mass            4 1.001
mass            5 14.01


pair_style snap
pair_coeff * * 2D_perov.snapcoeff 2D_perov.snapparam Pb I C H N

neighbor        2.0 bin
neigh_modify    every 1 delay 0 check yes

thermo          1
thermo_style    custom step temp pe ke press

dump            1 all custom 1 lammps.trajectory id type x y z

minimize        1.0e-5 0.0 100 1000
